342,160
396,314
621,406
875,547
977,702
1221,406
830,700
685,435
231,406
396,314
718,169
766,379
801,406
1137,258
598,150
681,586
727,702
875,547
801,406
766,379
621,406
533,258
491,780
584,476
601,446
644,520
245,723
